(set-info :smt-lib-version 2.6)
(set-logic UF)
(set-info :source |
Generated by: Andrew Reynolds
Generated on: 2017-04-28
Generator: Sledgehammer, converted to v2.6 by CVC4
Application: Verfication goals in Isabelle
Target solver: CVC4, Z3
Publications: "A Decision Procedure for (Co)Datatypes" by Andrew Reynolds and Jasmin Blanchette, CADE 2015.
|)
(set-info :license "https://creativecommons.org/licenses/by/4.0/")
(set-info :category "industrial")
(set-info :status unknown)


(declare-sort A$ 0)
(declare-sort Nat$ 0)
(declare-sort A_a_fun$ 0)
(declare-sort A_bool_fun$ 0)
(declare-sort A_llist_set$ 0)
(declare-sort Nat_nat_fun$ 0)
(declare-sort Bool_nat_fun$ 0)
(declare-sort Nat_bool_fun$ 0)
(declare-sort A_list_nat_fun$ 0)
(declare-sort A_llist_bool_fun$ 0)
(declare-sort A_llist_enat_fun$ 0)
(declare-sort A_list_a_list_fun$ 0)
(declare-sort A_llist_a_llist_fun$ 0)
(declare-sort Nat_nat_bool_fun_fun$ 0)
(declare-sort A_a_fun_a_list_a_list_fun_fun$ 0)
(declare-sort A_llist$ 0)
(declare-fun lNil$ () A_llist$)
(declare-fun lhd$ (A_llist$) A$)
(declare-fun ltl$ (A_llist$) A_llist$)
(declare-fun lCons$ (A$ A_llist$) A_llist$)
(declare-sort Nat_option$ 0)
(declare-sort Enat$ 0)
(declare-sort A_list$ 0)
(declare-sort Natural$ 0)
(declare-sort Nibble$ 0)
(declare-sort Char$ 0)
(declare-sort Char_list$ 0)
(declare-sort Literal$ 0)
(declare-fun none$ () Nat_option$)
(declare-fun the$ (Nat_option$) Nat$)
(declare-fun some$ (Nat$) Nat_option$)
(declare-fun rep_enat$ (Enat$) Nat_option$)
(declare-fun abs_enat$ (Nat_option$) Enat$)
(declare-fun nil$ () A_list$)
(declare-fun hd$ (A_list$) A$)
(declare-fun tl$ (A_list$) A_list$)
(declare-fun cons$ (A$ A_list$) A_list$)
(declare-fun nat_of_natural$ (Natural$) Nat$)
(declare-fun natural_of_nat$ (Nat$) Natural$)
(declare-fun nibble0$ () Nibble$)
(declare-fun nibble1$ () Nibble$)
(declare-fun nibble2$ () Nibble$)
(declare-fun nibble3$ () Nibble$)
(declare-fun nibble4$ () Nibble$)
(declare-fun nibble5$ () Nibble$)
(declare-fun nibble6$ () Nibble$)
(declare-fun nibble7$ () Nibble$)
(declare-fun nibble8$ () Nibble$)
(declare-fun nibble9$ () Nibble$)
(declare-fun nibbleA$ () Nibble$)
(declare-fun nibbleB$ () Nibble$)
(declare-fun nibbleC$ () Nibble$)
(declare-fun nibbleD$ () Nibble$)
(declare-fun nibbleE$ () Nibble$)
(declare-fun nibbleF$ () Nibble$)
(declare-fun select$ (Char$) Nibble$)
(declare-fun selecta$ (Char$) Nibble$)
(declare-fun char$ (Nibble$ Nibble$) Char$)
(declare-fun nil$a () Char_list$)
(declare-fun hd$a (Char_list$) Char$)
(declare-fun tl$a (Char_list$) Char_list$)
(declare-fun cons$a (Char$ Char_list$) Char_list$)
(declare-fun explode$ (Literal$) Char_list$)
(declare-fun str$ (Char_list$) Literal$)
(declare-fun n$ () Nat$)
(declare-fun xs$ () A_list$)
(declare-fun map$ () A_a_fun_a_list_a_list_fun_fun$)
(declare-fun min$ (Enat$ Enat$) Enat$)
(declare-fun one$ () Nat$)
(declare-fun suc$ (Natural$) Natural$)
(declare-fun enat$ (Nat$) Enat$)
(declare-fun lmap$ (A_a_fun$) A_llist_a_llist_fun$)
(declare-fun min$a (Natural$ Natural$) Natural$)
(declare-fun min$b (Nat$ Nat$) Nat$)
(declare-fun one$a () Natural$)
(declare-fun one$b () Enat$)
(declare-fun plus$ (Enat$ Enat$) Enat$)
(declare-fun size$ () A_list_nat_fun$)
(declare-fun suc$a (Nat$) Nat$)
(declare-fun take$ (Nat$ A_list$) A_list$)
(declare-fun zero$ () Enat$)
(declare-fun lnull$ (A_llist$) Bool)
(declare-fun ltake$ (Enat$) A_llist_a_llist_fun$)
(declare-fun plus$a (Natural$ Natural$) Natural$)
(declare-fun plus$b (Nat$) Nat_nat_fun$)
(declare-fun size$a (Enat$) Nat$)
(declare-fun size$b (Literal$) Nat$)
(declare-fun size$c (Nibble$) Nat$)
(declare-fun size$d (Char$) Nat$)
(declare-fun size$e () Bool_nat_fun$)
(declare-fun size$f (Natural$) Nat$)
(declare-fun zero$a () Nat$)
(declare-fun zero$b () Natural$)
(declare-fun member$ (A_llist$ A_llist_set$) Bool)
(declare-fun splice$ (A_list$ A_list$) A_list$)
(declare-fun fun_app$ (A_llist_a_llist_fun$ A_llist$) A_llist$)
(declare-fun lfinite$ (A_llist$) Bool)
(declare-fun list_of$ (A_llist$) A_list$)
(declare-fun llength$ () A_llist_enat_fun$)
(declare-fun lmember$ (A$) A_llist_bool_fun$)
(declare-fun fun_app$a (A_llist_enat_fun$ A_llist$) Enat$)
(declare-fun fun_app$b (A_list_nat_fun$ A_list$) Nat$)
(declare-fun fun_app$c (A_list_a_list_fun$ A_list$) A_list$)
(declare-fun fun_app$d (A_a_fun_a_list_a_list_fun_fun$ A_a_fun$) A_list_a_list_fun$)
(declare-fun fun_app$e (A_llist_bool_fun$ A_llist$) Bool)
(declare-fun fun_app$f (Bool_nat_fun$ Bool) Nat$)
(declare-fun fun_app$g (Nat_nat_fun$ Nat$) Nat$)
(declare-fun fun_app$h (Nat_bool_fun$ Nat$) Bool)
(declare-fun fun_app$i (Nat_nat_bool_fun_fun$ Nat$) Nat_bool_fun$)
(declare-fun fun_app$j (A_a_fun$ A$) A$)
(declare-fun fun_app$k (A_bool_fun$ A$) Bool)
(declare-fun llist_of$ (A_list$) A_llist$)
(declare-fun rec_bool$ (Nat$ Nat$) Bool_nat_fun$)
(declare-fun the_enat$ (Enat$) Nat$)
(declare-fun triangle$ (Nat$) Nat$)
(declare-fun size_bool$ () Bool_nat_fun$)
(declare-fun size_char$ (Char$) Nat$)
(declare-fun size_enat$ (Enat$) Nat$)
(declare-fun undefined$ () A_list$)
(declare-fun count_list$ (A_list$ A$) Nat$)
(declare-fun gen_length$ (Nat$) A_list_nat_fun$)
(declare-fun pred_llist$ (A_bool_fun$ A_llist$) Bool)
(declare-fun gen_llength$ (Nat$) A_llist_enat_fun$)
(declare-fun list_of_aux$ (A_list$ A_llist$) A_list$)
(declare-fun map_tailrec$ () A_a_fun_a_list_a_list_fun_fun$)
(declare-fun size_nibble$ (Nibble$) Nat$)
(declare-fun size_natural$ (Natural$) Nat$)
(declare-fun nibble_of_nat$ (Nat$) Nibble$)
(assert (not (= (fun_app$ (ltake$ (enat$ n$)) (llist_of$ xs$)) (llist_of$ (take$ n$ xs$)))))
(assert (forall ((?v0 A_list$) (?v1 A_list$)) (= (= (llist_of$ ?v0) (llist_of$ ?v1)) (= ?v0 ?v1)) ))
(assert (forall ((?v0 Nat$) (?v1 Nat$)) (= (= (enat$ ?v0) (enat$ ?v1)) (= ?v0 ?v1)) ))
(assert (forall ((?v0 A_list$) (?v1 A_list$)) (=> (forall ((?v2 Nat$)) (= (take$ ?v2 ?v0) (take$ ?v2 ?v1)) ) (= ?v0 ?v1)) ))
(assert (forall ((?v0 A_list$)) (= (list_of$ (llist_of$ ?v0)) ?v0) ))
(assert (forall ((?v0 Enat$) (?v1 A_a_fun$) (?v2 A_llist$)) (= (fun_app$ (ltake$ ?v0) (fun_app$ (lmap$ ?v1) ?v2)) (fun_app$ (lmap$ ?v1) (fun_app$ (ltake$ ?v0) ?v2))) ))
(assert (forall ((?v0 Enat$)) (! (= (fun_app$ (ltake$ ?v0) lNil$) lNil$) :pattern ((ltake$ ?v0)))))
(assert (forall ((?v0 Enat$) (?v1 Enat$) (?v2 A_llist$)) (= (fun_app$ (ltake$ ?v0) (fun_app$ (ltake$ ?v1) ?v2)) (fun_app$ (ltake$ (min$ ?v0 ?v1)) ?v2)) ))
(assert (forall ((?v0 A_list$)) (lfinite$ (llist_of$ ?v0)) ))
(assert (forall ((?v0 A_list$)) (= (fun_app$a llength$ (llist_of$ ?v0)) (enat$ (fun_app$b size$ ?v0))) ))
(assert (forall ((?v0 Nat$)) (! (= (the_enat$ (enat$ ?v0)) ?v0) :pattern ((enat$ ?v0)))))
(assert (forall ((?v0 A_llist$)) (=> (lfinite$ ?v0) (= (llist_of$ (list_of$ ?v0)) ?v0)) ))
(assert (= (lfinite$ lNil$) true))
(assert (forall ((?v0 A_a_fun$) (?v1 A_llist$)) (= (lfinite$ (fun_app$ (lmap$ ?v0) ?v1)) (lfinite$ ?v1)) ))
(assert (forall ((?v0 A_a_fun$) (?v1 A_llist$)) (= (fun_app$a llength$ (fun_app$ (lmap$ ?v0) ?v1)) (fun_app$a llength$ ?v1)) ))
(assert (forall ((?v0 Enat$) (?v1 A_llist$)) (= (fun_app$a llength$ (fun_app$ (ltake$ ?v0) ?v1)) (min$ ?v0 (fun_app$a llength$ ?v1))) ))
(assert (forall ((?v0 A_a_fun$) (?v1 A_llist$)) (= (= (fun_app$ (lmap$ ?v0) ?v1) lNil$) (= ?v1 lNil$)) ))
(assert (forall ((?v0 A_a_fun$) (?v1 A_llist$)) (= (= lNil$ (fun_app$ (lmap$ ?v0) ?v1)) (= ?v1 lNil$)) ))
(assert (forall ((?v0 A_a_fun$)) (! (= (fun_app$ (lmap$ ?v0) lNil$) lNil$) :pattern ((lmap$ ?v0)))))
(assert (forall ((?v0 A_list$) (?v1 A_list$)) (=> (not (= (fun_app$b size$ ?v0) (fun_app$b size$ ?v1))) (= (= ?v0 ?v1) false)) ))
(assert (forall ((?v0 A_llist$)) (=> (lfinite$ ?v0) (= (enat$ (fun_app$b size$ (list_of$ ?v0))) (fun_app$a llength$ ?v0))) ))
(assert (forall ((?v0 A_llist$)) (=> (lfinite$ ?v0) (= (fun_app$b size$ (list_of$ ?v0)) (the_enat$ (fun_app$a llength$ ?v0)))) ))
(assert (forall ((?v0 Nat$)) (exists ((?v1 A_list$)) (= (fun_app$b size$ ?v1) ?v0) ) ))
(assert (lfinite$ lNil$))
(assert (forall ((?v0 A_llist$)) (=> (lfinite$ ?v0) (exists ((?v1 Nat$)) (= (fun_app$a llength$ ?v0) (enat$ ?v1)) )) ))
(assert (forall ((?v0 A_llist$) (?v1 Nat$)) (=> (= (fun_app$a llength$ ?v0) (enat$ ?v1)) (lfinite$ ?v0)) ))
(assert (forall ((?v0 A_llist$)) (= (lfinite$ ?v0) (exists ((?v1 Nat$)) (= (fun_app$a llength$ ?v0) (enat$ ?v1)) )) ))
(assert (forall ((?v0 Natural$) (?v1 Natural$)) (= (min$a (min$a ?v0 ?v1) ?v1) (min$a ?v0 ?v1)) ))
(assert (forall ((?v0 Enat$) (?v1 Enat$)) (= (min$ (min$ ?v0 ?v1) ?v1) (min$ ?v0 ?v1)) ))
(assert (forall ((?v0 Nat$) (?v1 Nat$)) (= (min$b (min$b ?v0 ?v1) ?v1) (min$b ?v0 ?v1)) ))
(assert (forall ((?v0 Natural$) (?v1 Natural$)) (= (min$a ?v0 (min$a ?v0 ?v1)) (min$a ?v0 ?v1)) ))
(assert (forall ((?v0 Enat$) (?v1 Enat$)) (= (min$ ?v0 (min$ ?v0 ?v1)) (min$ ?v0 ?v1)) ))
(assert (forall ((?v0 Nat$) (?v1 Nat$)) (= (min$b ?v0 (min$b ?v0 ?v1)) (min$b ?v0 ?v1)) ))
(assert (forall ((?v0 Natural$)) (= (min$a ?v0 ?v0) ?v0) ))
(assert (forall ((?v0 Enat$)) (= (min$ ?v0 ?v0) ?v0) ))
(assert (forall ((?v0 Nat$)) (= (min$b ?v0 ?v0) ?v0) ))
(assert (forall ((?v0 Nat$)) (! (= (fun_app$a (gen_llength$ ?v0) lNil$) (enat$ ?v0)) :pattern ((gen_llength$ ?v0)))))
(assert (forall ((?v0 A_llist$) (?v1 A_a_fun$)) (=> (lfinite$ ?v0) (= (list_of$ (fun_app$ (lmap$ ?v1) ?v0)) (fun_app$c (fun_app$d map$ ?v1) (list_of$ ?v0)))) ))
(assert (forall ((?v0 Natural$) (?v1 Natural$) (?v2 Natural$)) (= (min$a (min$a ?v0 ?v1) ?v2) (min$a ?v0 (min$a ?v1 ?v2))) ))
(assert (forall ((?v0 Enat$) (?v1 Enat$) (?v2 Enat$)) (= (min$ (min$ ?v0 ?v1) ?v2) (min$ ?v0 (min$ ?v1 ?v2))) ))
(assert (forall ((?v0 Nat$) (?v1 Nat$) (?v2 Nat$)) (= (min$b (min$b ?v0 ?v1) ?v2) (min$b ?v0 (min$b ?v1 ?v2))) ))
(assert (forall ((?v0 Natural$) (?v1 Natural$) (?v2 Natural$)) (= (min$a ?v0 (min$a ?v1 ?v2)) (min$a ?v1 (min$a ?v0 ?v2))) ))
(assert (forall ((?v0 Enat$) (?v1 Enat$) (?v2 Enat$)) (= (min$ ?v0 (min$ ?v1 ?v2)) (min$ ?v1 (min$ ?v0 ?v2))) ))
(assert (forall ((?v0 Nat$) (?v1 Nat$) (?v2 Nat$)) (= (min$b ?v0 (min$b ?v1 ?v2)) (min$b ?v1 (min$b ?v0 ?v2))) ))
(assert (forall ((?v0 Natural$) (?v1 Natural$)) (= (min$a ?v0 ?v1) (min$a ?v1 ?v0)) ))
(assert (forall ((?v0 Enat$) (?v1 Enat$)) (= (min$ ?v0 ?v1) (min$ ?v1 ?v0)) ))
(assert (forall ((?v0 Nat$) (?v1 Nat$)) (= (min$b ?v0 ?v1) (min$b ?v1 ?v0)) ))
(assert (forall ((?v0 A$)) (! (= (fun_app$e (lmember$ ?v0) lNil$) false) :pattern ((lmember$ ?v0)))))
(assert (forall ((?v0 A_list$) (?v1 A_list$)) (=> (not (= (fun_app$b size$ ?v0) (fun_app$b size$ ?v1))) (not (= ?v0 ?v1))) ))
(assert (forall ((?v0 Enat$) (?v1 Enat$)) (=> (not (= (size$a ?v0) (size$a ?v1))) (not (= ?v0 ?v1))) ))
(assert (forall ((?v0 Literal$) (?v1 Literal$)) (=> (not (= (size$b ?v0) (size$b ?v1))) (not (= ?v0 ?v1))) ))
(assert (forall ((?v0 Nibble$) (?v1 Nibble$)) (=> (not (= (size$c ?v0) (size$c ?v1))) (not (= ?v0 ?v1))) ))
(assert (forall ((?v0 Char$) (?v1 Char$)) (=> (not (= (size$d ?v0) (size$d ?v1))) (not (= ?v0 ?v1))) ))
(assert (forall ((?v0 Bool) (?v1 Bool)) (=> (not (= (fun_app$f size$e ?v0) (fun_app$f size$e ?v1))) (not (= ?v0 ?v1))) ))
(assert (= (fun_app$a llength$ lNil$) zero$))
(assert (forall ((?v0 Nat$) (?v1 Nat$) (?v2 A_list$)) (= (take$ ?v0 (take$ ?v1 ?v2)) (take$ (min$b ?v0 ?v1) ?v2)) ))
(assert (forall ((?v0 A_a_fun$) (?v1 A_list$)) (= (fun_app$b size$ (fun_app$c (fun_app$d map$ ?v0) ?v1)) (fun_app$b size$ ?v1)) ))
(assert (forall ((?v0 Nat$) (?v1 A_list$)) (= (fun_app$b size$ (take$ ?v0 ?v1)) (min$b (fun_app$b size$ ?v1) ?v0)) ))
(assert (forall ((?v0 Enat$)) (= (min$ zero$ ?v0) zero$) ))
(assert (forall ((?v0 Enat$)) (= (min$ ?v0 zero$) zero$) ))
(assert (forall ((?v0 Nat$) (?v1 Nat$)) (= (min$ (enat$ ?v0) (enat$ ?v1)) (enat$ (min$b ?v0 ?v1))) ))
(assert (forall ((?v0 Enat$) (?v1 A_llist$)) (= (= lNil$ (fun_app$ (ltake$ ?v0) ?v1)) (or (= ?v1 lNil$) (= ?v0 zero$))) ))
(assert (forall ((?v0 A_llist$)) (= (fun_app$ (ltake$ zero$) ?v0) lNil$) ))
(assert (forall ((?v0 A_a_fun$) (?v1 A_list$)) (= (fun_app$ (lmap$ ?v0) (llist_of$ ?v1)) (llist_of$ (fun_app$c (fun_app$d map$ ?v0) ?v1))) ))
(assert (forall ((?v0 A_a_fun$) (?v1 A_list$) (?v2 A_a_fun$) (?v3 A_list$)) (=> (= (fun_app$c (fun_app$d map$ ?v0) ?v1) (fun_app$c (fun_app$d map$ ?v2) ?v3)) (= (fun_app$b size$ ?v1) (fun_app$b size$ ?v3))) ))
(assert (forall ((?v0 Nat$) (?v1 A_a_fun$) (?v2 A_list$)) (= (take$ ?v0 (fun_app$c (fun_app$d map$ ?v1) ?v2)) (fun_app$c (fun_app$d map$ ?v1) (take$ ?v0 ?v2))) ))
(assert (forall ((?v0 Enat$) (?v1 A_llist$)) (= (= (fun_app$ (ltake$ ?v0) ?v1) lNil$) (or (= ?v1 lNil$) (= ?v0 zero$))) ))
(assert (forall ((?v0 Enat$) (?v1 Enat$)) (= (= (min$ ?v0 ?v1) zero$) (or (= ?v0 zero$) (= ?v1 zero$))) ))
(assert (= map$ map_tailrec$))
(assert (forall ((?v0 Nat$) (?v1 A_llist$)) (! (= (fun_app$a (gen_llength$ ?v0) ?v1) (plus$ (enat$ ?v0) (fun_app$a llength$ ?v1))) :pattern ((fun_app$a (gen_llength$ ?v0) ?v1)))))
(assert (forall ((?v0 Enat$)) (=> (and (=> (= ?v0 zero$) false) (=> (not (= ?v0 zero$)) false)) false) ))
(assert (forall ((?v0 Enat$) (?v1 A_llist$)) (! (=> (or (= ?v0 zero$) (lnull$ ?v1)) (= (fun_app$ (ltake$ ?v0) ?v1) lNil$)) :pattern ((fun_app$ (ltake$ ?v0) ?v1)))))
(assert (= llength$ (gen_llength$ zero$a)))
(assert (forall ((?v0 Enat$)) (= (= zero$ ?v0) (= ?v0 zero$)) ))
(assert (forall ((?v0 Nat$)) (= (= zero$a ?v0) (= ?v0 zero$a)) ))
(assert (forall ((?v0 Natural$)) (= (= zero$b ?v0) (= ?v0 zero$b)) ))
(assert (forall ((?v0 Natural$) (?v1 Natural$) (?v2 Natural$)) (= (= (plus$a ?v0 ?v1) (plus$a ?v2 ?v1)) (= ?v0 ?v2)) ))
(assert (forall ((?v0 Nat$) (?v1 Nat$) (?v2 Nat$)) (= (= (fun_app$g (plus$b ?v0) ?v1) (fun_app$g (plus$b ?v2) ?v1)) (= ?v0 ?v2)) ))
(assert (forall ((?v0 Natural$) (?v1 Natural$) (?v2 Natural$)) (= (= (plus$a ?v0 ?v1) (plus$a ?v0 ?v2)) (= ?v1 ?v2)) ))
(assert (forall ((?v0 Nat$) (?v1 Nat$) (?v2 Nat$)) (= (= (fun_app$g (plus$b ?v0) ?v1) (fun_app$g (plus$b ?v0) ?v2)) (= ?v1 ?v2)) ))
(assert (forall ((?v0 Enat$)) (= (plus$ ?v0 zero$) ?v0) ))
(assert (forall ((?v0 Nat$)) (= (fun_app$g (plus$b ?v0) zero$a) ?v0) ))
(assert (forall ((?v0 Natural$)) (= (plus$a ?v0 zero$b) ?v0) ))
(assert (forall ((?v0 Enat$)) (= (plus$ zero$ ?v0) ?v0) ))
(assert (forall ((?v0 Nat$)) (= (fun_app$g (plus$b zero$a) ?v0) ?v0) ))
(assert (forall ((?v0 Natural$)) (= (plus$a zero$b ?v0) ?v0) ))
(assert (forall ((?v0 Nat$)) (! (= (size$a (enat$ ?v0)) zero$a) :pattern ((enat$ ?v0)))))
(assert (forall ((?v0 A_a_fun$) (?v1 A_llist$)) (= (lnull$ (fun_app$ (lmap$ ?v0) ?v1)) (lnull$ ?v1)) ))
(assert (forall ((?v0 Enat$) (?v1 Nat$) (?v2 Enat$)) (= (= (plus$ ?v0 (enat$ ?v1)) (plus$ ?v2 (enat$ ?v1))) (= ?v0 ?v2)) ))
(assert (forall ((?v0 Nat$) (?v1 Enat$) (?v2 Enat$)) (= (= (plus$ (enat$ ?v0) ?v1) (plus$ (enat$ ?v0) ?v2)) (= ?v1 ?v2)) ))
(assert (forall ((?v0 Enat$) (?v1 A_llist$)) (= (lnull$ (fun_app$ (ltake$ ?v0) ?v1)) (or (lnull$ ?v1) (= ?v0 zero$))) ))
(assert (forall ((?v0 Enat$) (?v1 A_llist$)) (= (lnull$ (fun_app$ (ltake$ ?v0) ?v1)) (or (= ?v0 zero$) (lnull$ ?v1))) ))
(assert (forall ((?v0 Enat$) (?v1 A_llist$)) (= (not (lnull$ (fun_app$ (ltake$ ?v0) ?v1))) (and (not (= ?v0 zero$)) (not (lnull$ ?v1)))) ))
(assert (forall ((?v0 A_llist$)) (= (= (fun_app$a llength$ ?v0) zero$) (lnull$ ?v0)) ))
(assert (forall ((?v0 A_llist$)) (! (=> (lnull$ ?v0) (= (fun_app$a llength$ ?v0) zero$)) :pattern ((fun_app$a llength$ ?v0)))))
(assert (= (the_enat$ zero$) zero$a))
(assert (forall ((?v0 Enat$)) (= (plus$ zero$ ?v0) ?v0) ))
(assert (forall ((?v0 Nat$)) (= (fun_app$g (plus$b zero$a) ?v0) ?v0) ))
(assert (forall ((?v0 Natural$)) (= (plus$a zero$b ?v0) ?v0) ))
(assert (forall ((?v0 Enat$)) (= (plus$ ?v0 zero$) ?v0) ))
(assert (forall ((?v0 Nat$)) (= (fun_app$g (plus$b ?v0) zero$a) ?v0) ))
(assert (forall ((?v0 Natural$)) (= (plus$a ?v0 zero$b) ?v0) ))
(assert (forall ((?v0 Enat$) (?v1 Enat$)) (= (= (plus$ ?v0 ?v1) zero$) (and (= ?v0 zero$) (= ?v1 zero$))) ))
(assert (forall ((?v0 Natural$) (?v1 Natural$) (?v2 Natural$)) (= (plus$a ?v0 (min$a ?v1 ?v2)) (min$a (plus$a ?v0 ?v1) (plus$a ?v0 ?v2))) ))
(assert (forall ((?v0 Nat$) (?v1 Nat$) (?v2 Nat$)) (= (fun_app$g (plus$b ?v0) (min$b ?v1 ?v2)) (min$b (fun_app$g (plus$b ?v0) ?v1) (fun_app$g (plus$b ?v0) ?v2))) ))
(assert (forall ((?v0 Natural$) (?v1 Natural$) (?v2 Natural$)) (= (plus$a (min$a ?v0 ?v1) ?v2) (min$a (plus$a ?v0 ?v2) (plus$a ?v1 ?v2))) ))
(assert (forall ((?v0 Nat$) (?v1 Nat$) (?v2 Nat$)) (= (fun_app$g (plus$b (min$b ?v0 ?v1)) ?v2) (min$b (fun_app$g (plus$b ?v0) ?v2) (fun_app$g (plus$b ?v1) ?v2))) ))
(assert (forall ((?v0 Natural$) (?v1 Natural$) (?v2 Natural$)) (= (plus$a (plus$a ?v0 ?v1) ?v2) (plus$a ?v0 (plus$a ?v1 ?v2))) ))
(assert (forall ((?v0 Enat$) (?v1 Enat$) (?v2 Enat$)) (= (plus$ (plus$ ?v0 ?v1) ?v2) (plus$ ?v0 (plus$ ?v1 ?v2))) ))
(assert (forall ((?v0 Nat$) (?v1 Nat$) (?v2 Nat$)) (= (fun_app$g (plus$b (fun_app$g (plus$b ?v0) ?v1)) ?v2) (fun_app$g (plus$b ?v0) (fun_app$g (plus$b ?v1) ?v2))) ))
(assert (forall ((?v0 Natural$) (?v1 Natural$) (?v2 Natural$)) (= (plus$a (plus$a ?v0 ?v1) ?v2) (plus$a ?v0 (plus$a ?v1 ?v2))) ))
(assert (forall ((?v0 Enat$) (?v1 Enat$) (?v2 Enat$)) (= (plus$ (plus$ ?v0 ?v1) ?v2) (plus$ ?v0 (plus$ ?v1 ?v2))) ))
(assert (forall ((?v0 Nat$) (?v1 Nat$) (?v2 Nat$)) (= (fun_app$g (plus$b (fun_app$g (plus$b ?v0) ?v1)) ?v2) (fun_app$g (plus$b ?v0) (fun_app$g (plus$b ?v1) ?v2))) ))
(assert (forall ((?v0 Natural$) (?v1 Natural$) (?v2 Natural$)) (= (plus$a ?v0 (plus$a ?v1 ?v2)) (plus$a ?v1 (plus$a ?v0 ?v2))) ))
(assert (forall ((?v0 Enat$) (?v1 Enat$) (?v2 Enat$)) (= (plus$ ?v0 (plus$ ?v1 ?v2)) (plus$ ?v1 (plus$ ?v0 ?v2))) ))
(assert (forall ((?v0 Nat$) (?v1 Nat$) (?v2 Nat$)) (= (fun_app$g (plus$b ?v0) (fun_app$g (plus$b ?v1) ?v2)) (fun_app$g (plus$b ?v1) (fun_app$g (plus$b ?v0) ?v2))) ))
(assert (forall ((?v0 Natural$) (?v1 Natural$)) (= (plus$a ?v0 ?v1) (plus$a ?v1 ?v0)) ))
(assert (forall ((?v0 Enat$) (?v1 Enat$)) (= (plus$ ?v0 ?v1) (plus$ ?v1 ?v0)) ))
(assert (forall ((?v0 Nat$) (?v1 Nat$)) (= (fun_app$g (plus$b ?v0) ?v1) (fun_app$g (plus$b ?v1) ?v0)) ))
(assert (forall ((?v0 A_llist$) (?v1 A_llist$)) (=> (and (=> (or (lnull$ ?v0) (lnull$ ?v1)) false) (=> (and (not (lnull$ ?v0)) (not (lnull$ ?v1))) false)) false) ))
(assert (forall ((?v0 A_llist_set$)) (=> (and (=> (forall ((?v1 A_llist$)) (=> (member$ ?v1 ?v0) (lnull$ ?v1)) ) false) (=> (not (forall ((?v1 A_llist$)) (=> (member$ ?v1 ?v0) (lnull$ ?v1)) )) false)) false) ))
(assert (forall ((?v0 A_llist$) (?v1 A_llist$)) (=> (and (=> (and (lnull$ ?v0) (lnull$ ?v1)) false) (=> (or (not (lnull$ ?v0)) (not (lnull$ ?v1))) false)) false) ))
(assert (forall ((?v0 A_llist$)) (=> (and (=> (lnull$ ?v0) false) (=> (not (lnull$ ?v0)) false)) false) ))
(assert (forall ((?v0 Natural$) (?v1 Natural$) (?v2 Natural$)) (=> (= (plus$a ?v0 ?v1) (plus$a ?v2 ?v1)) (= ?v0 ?v2)) ))
(assert (forall ((?v0 Nat$) (?v1 Nat$) (?v2 Nat$)) (=> (= (fun_app$g (plus$b ?v0) ?v1) (fun_app$g (plus$b ?v2) ?v1)) (= ?v0 ?v2)) ))
(assert (forall ((?v0 Natural$) (?v1 Natural$) (?v2 Natural$)) (=> (= (plus$a ?v0 ?v1) (plus$a ?v0 ?v2)) (= ?v1 ?v2)) ))
(assert (forall ((?v0 Nat$) (?v1 Nat$) (?v2 Nat$)) (=> (= (fun_app$g (plus$b ?v0) ?v1) (fun_app$g (plus$b ?v0) ?v2)) (= ?v1 ?v2)) ))
(assert (forall ((?v0 Natural$) (?v1 Natural$) (?v2 Natural$) (?v3 Natural$)) (=> (and (= ?v0 ?v1) (= ?v2 ?v3)) (= (plus$a ?v0 ?v2) (plus$a ?v1 ?v3))) ))
(assert (forall ((?v0 Enat$) (?v1 Enat$) (?v2 Enat$) (?v3 Enat$)) (=> (and (= ?v0 ?v1) (= ?v2 ?v3)) (= (plus$ ?v0 ?v2) (plus$ ?v1 ?v3))) ))
(assert (forall ((?v0 Nat$) (?v1 Nat$) (?v2 Nat$) (?v3 Nat$)) (=> (and (= ?v0 ?v1) (= ?v2 ?v3)) (= (fun_app$g (plus$b ?v0) ?v2) (fun_app$g (plus$b ?v1) ?v3))) ))
(assert (forall ((?v0 Enat$) (?v1 A_llist$)) (=> (and (=> (or (= ?v0 zero$) (lnull$ ?v1)) false) (=> (and (not (= ?v0 zero$)) (not (lnull$ ?v1))) false)) false) ))
(assert (forall ((?v0 A_llist$)) (! (= (lnull$ ?v0) (= ?v0 lNil$)) :pattern ((lnull$ ?v0)))))
(assert (forall ((?v0 A_llist$)) (=> (= ?v0 lNil$) (lnull$ ?v0)) ))
(assert (forall ((?v0 A_llist$)) (=> (lnull$ ?v0) (= ?v0 lNil$)) ))
(assert (lnull$ lNil$))
(assert (forall ((?v0 A_llist$)) (=> (lnull$ ?v0) (lfinite$ ?v0)) ))
(assert (forall ((?v0 Enat$) (?v1 A_llist$)) (=> (and (not (= ?v0 zero$)) (not (lnull$ ?v1))) (not (lnull$ (fun_app$ (ltake$ ?v0) ?v1)))) ))
(assert (forall ((?v0 Enat$) (?v1 A_llist$)) (=> (or (= ?v0 zero$) (lnull$ ?v1)) (lnull$ (fun_app$ (ltake$ ?v0) ?v1))) ))
(assert (forall ((?v0 Nat$)) (= (= (enat$ ?v0) zero$) (= ?v0 zero$a)) ))
(assert (forall ((?v0 Nat$)) (= (= zero$ (enat$ ?v0)) (= ?v0 zero$a)) ))
(assert (= zero$ (enat$ zero$a)))
(assert (forall ((?v0 Nat$)) (= (min$b ?v0 zero$a) zero$a) ))
(assert (forall ((?v0 Nat$)) (= (min$b zero$a ?v0) zero$a) ))
(assert (forall ((?v0 Nat$)) (! (= (size_enat$ (enat$ ?v0)) zero$a) :pattern ((enat$ ?v0)))))
(assert (forall ((?v0 Nibble$)) (! (= (size$c ?v0) zero$a) :pattern ((size$c ?v0)))))
(assert (forall ((?v0 Char$)) (! (= (size$d ?v0) zero$a) :pattern ((size$d ?v0)))))
(assert (= (fun_app$f size$e true) zero$a))
(assert (= (fun_app$f size$e false) zero$a))
(assert (forall ((?v0 Nat$)) (! (= (fun_app$g (plus$b ?v0) zero$a) ?v0) :pattern ((plus$b ?v0)))))
(assert (forall ((?v0 Nat$) (?v1 Nat$)) (= (= (fun_app$g (plus$b ?v0) ?v1) zero$a) (and (= ?v0 zero$a) (= ?v1 zero$a))) ))
(assert (forall ((?v0 Nat$) (?v1 Nat$)) (! (= (plus$ (enat$ ?v0) (enat$ ?v1)) (enat$ (fun_app$g (plus$b ?v0) ?v1))) :pattern ((plus$ (enat$ ?v0) (enat$ ?v1))))))
(assert (forall ((?v0 Nat$) (?v1 Nat$)) (=> (= (fun_app$g (plus$b ?v0) ?v1) ?v0) (= ?v1 zero$a)) ))
(assert (forall ((?v0 Nat$)) (! (= (fun_app$g (plus$b zero$a) ?v0) ?v0) :pattern ((fun_app$g (plus$b zero$a) ?v0)))))
(assert (forall ((?v0 Nat$)) (=> (and (=> (= ?v0 zero$a) false) (=> (not (= ?v0 zero$a)) false)) false) ))
(assert (forall ((?v0 Literal$)) (! (= (size$b ?v0) zero$a) :pattern ((size$b ?v0)))))
(assert (forall ((?v0 Bool)) (! (= (fun_app$f size$e ?v0) zero$a) :pattern ((fun_app$f size$e ?v0)))))
(assert (forall ((?v0 Char$)) (! (= (size_char$ ?v0) zero$a) :pattern ((size_char$ ?v0)))))
(assert (= (size$f zero$b) zero$a))
(assert (= (size$c nibbleA$) zero$a))
(assert (= (fun_app$f size_bool$ true) zero$a))
(assert (= (fun_app$f size_bool$ false) zero$a))
(assert (forall ((?v0 Nat$) (?v1 Nat$) (?v2 Nat$)) (= (= (fun_app$g (plus$b ?v0) ?v1) (fun_app$g (plus$b ?v2) ?v1)) (= ?v0 ?v2)) ))
(assert (forall ((?v0 Nat$) (?v1 Nat$) (?v2 Nat$)) (= (= (fun_app$g (plus$b ?v0) ?v1) (fun_app$g (plus$b ?v0) ?v2)) (= ?v1 ?v2)) ))
(assert (= zero$a zero$a))
(assert (= (size_natural$ zero$b) zero$a))
(assert (= (size$c nibbleB$) zero$a))
(assert (= size_bool$ (rec_bool$ zero$a zero$a)))
(assert (= size$e (rec_bool$ zero$a zero$a)))
(assert (= (size$c nibble8$) zero$a))
(assert (forall ((?v0 Nat_nat_bool_fun_fun$) (?v1 Nat$) (?v2 Nat$)) (=> (and (forall ((?v3 Nat$) (?v4 Nat$)) (= (fun_app$h (fun_app$i ?v0 ?v3) ?v4) (fun_app$h (fun_app$i ?v0 ?v4) ?v3)) ) (and (forall ((?v3 Nat$)) (fun_app$h (fun_app$i ?v0 ?v3) zero$a) ) (forall ((?v3 Nat$) (?v4 Nat$)) (=> (fun_app$h (fun_app$i ?v0 ?v3) ?v4) (fun_app$h (fun_app$i ?v0 ?v3) (fun_app$g (plus$b ?v3) ?v4))) ))) (fun_app$h (fun_app$i ?v0 ?v1) ?v2)) ))
(assert (forall ((?v0 Nat$) (?v1 Nat$)) (= (= ?v0 (fun_app$g (plus$b ?v0) ?v1)) (= ?v1 zero$a)) ))
(assert (= (size$c nibble0$) zero$a))
(assert (forall ((?v0 Nat$) (?v1 A_list$)) (! (= (fun_app$b (gen_length$ ?v0) ?v1) (fun_app$g (plus$b ?v0) (fun_app$b size$ ?v1))) :pattern ((fun_app$b (gen_length$ ?v0) ?v1)))))
(assert (= size$ (gen_length$ zero$a)))
(assert (= (size$c nibbleD$) zero$a))
(assert (= (size$c nibbleC$) zero$a))
(assert (forall ((?v0 A_list$) (?v1 A_list$)) (= (fun_app$b size$ (splice$ ?v0 ?v1)) (fun_app$g (plus$b (fun_app$b size$ ?v0)) (fun_app$b size$ ?v1))) ))
(assert (= (size$c nibble1$) zero$a))
(assert (= (size$c nibbleF$) zero$a))
(assert (= (size$c nibble3$) zero$a))
(assert (= (nibble_of_nat$ zero$a) nibble0$))
(assert (= (size_nibble$ nibbleA$) zero$a))
(assert (= (size$c nibble9$) zero$a))
(assert (forall ((?v0 Natural$) (?v1 Natural$)) (= (= (suc$ ?v0) (suc$ ?v1)) (= ?v0 ?v1)) ))
(assert (forall ((?v0 Nibble$)) (! (= (size_nibble$ ?v0) zero$a) :pattern ((size_nibble$ ?v0)))))
(assert (= (size_nibble$ nibble9$) zero$a))
(assert (forall ((?v0 Natural$)) (=> (and (=> (= ?v0 zero$b) false) (forall ((?v1 Natural$)) (=> (= ?v0 (suc$ ?v1)) false) )) false) ))
(assert (forall ((?v0 Natural$)) (not (= zero$b (suc$ ?v0))) ))
(assert (forall ((?v0 Natural$)) (not (= (suc$ ?v0) zero$b)) ))
(assert (= (size_nibble$ nibble3$) zero$a))
(assert (= (size_nibble$ nibbleF$) zero$a))
(assert (= (size_nibble$ nibble1$) zero$a))
(assert (= (size_nibble$ nibbleC$) zero$a))
(assert (= (size_nibble$ nibbleD$) zero$a))
(assert (= (size_nibble$ nibble0$) zero$a))
(assert (= (size_nibble$ nibble8$) zero$a))
(assert (= (size_nibble$ nibbleB$) zero$a))
(assert (forall ((?v0 Natural$)) (! (= (size_natural$ (suc$ ?v0)) (fun_app$g (plus$b (size_natural$ ?v0)) (suc$a zero$a))) :pattern ((suc$ ?v0)))))
(assert (forall ((?v0 Natural$)) (! (= (size$f (suc$ ?v0)) (fun_app$g (plus$b (size$f ?v0)) (suc$a zero$a))) :pattern ((suc$ ?v0)))))
(assert (forall ((?v0 Nat$) (?v1 Nat$)) (= (= (suc$a ?v0) (suc$a ?v1)) (= ?v0 ?v1)) ))
(assert (forall ((?v0 Nat$) (?v1 Nat$)) (= (= (suc$a ?v0) (suc$a ?v1)) (= ?v0 ?v1)) ))
(assert (forall ((?v0 Nat$) (?v1 Nat$)) (! (= (fun_app$g (plus$b ?v0) (suc$a ?v1)) (suc$a (fun_app$g (plus$b ?v0) ?v1))) :pattern ((fun_app$g (plus$b ?v0) (suc$a ?v1))))))
(assert (forall ((?v0 Nat$) (?v1 Nat$)) (= (min$b (suc$a ?v0) (suc$a ?v1)) (suc$a (min$b ?v0 ?v1))) ))
(assert (forall ((?v0 Nat$)) (not (= zero$a (suc$a ?v0))) ))
(assert (forall ((?v0 Nat$)) (not (= (suc$a ?v0) zero$a)) ))
(assert (forall ((?v0 Nat$)) (not (= zero$a (suc$a ?v0))) ))
(assert (forall ((?v0 Nat$)) (not (= zero$a (suc$a ?v0))) ))
(assert (forall ((?v0 Nat_bool_fun$) (?v1 Nat$)) (=> (and (fun_app$h ?v0 zero$a) (forall ((?v2 Nat$)) (=> (fun_app$h ?v0 ?v2) (fun_app$h ?v0 (suc$a ?v2))) )) (fun_app$h ?v0 ?v1)) ))
(assert (forall ((?v0 Nat_bool_fun$) (?v1 Nat$)) (=> (and (fun_app$h ?v0 ?v1) (forall ((?v2 Nat$)) (=> (fun_app$h ?v0 (suc$a ?v2)) (fun_app$h ?v0 ?v2)) )) (fun_app$h ?v0 zero$a)) ))
(assert (forall ((?v0 Nat$)) (=> (not (= ?v0 zero$a)) (exists ((?v1 Nat$)) (= ?v0 (suc$a ?v1)) )) ))
(assert (forall ((?v0 Nat$)) (=> (= zero$a (suc$a ?v0)) false) ))
(assert (forall ((?v0 Nat$) (?v1 Nat$)) (=> (= ?v0 (suc$a ?v1)) (not (= ?v0 zero$a))) ))
(assert (forall ((?v0 Nat$)) (=> (= (suc$a ?v0) zero$a) false) ))
(assert (forall ((?v0 Nat_nat_bool_fun_fun$) (?v1 Nat$) (?v2 Nat$)) (=> (and (forall ((?v3 Nat$)) (fun_app$h (fun_app$i ?v0 ?v3) zero$a) ) (and (forall ((?v3 Nat$)) (fun_app$h (fun_app$i ?v0 zero$a) (suc$a ?v3)) ) (forall ((?v3 Nat$) (?v4 Nat$)) (=> (fun_app$h (fun_app$i ?v0 ?v3) ?v4) (fun_app$h (fun_app$i ?v0 (suc$a ?v3)) (suc$a ?v4))) ))) (fun_app$h (fun_app$i ?v0 ?v1) ?v2)) ))
(assert (forall ((?v0 Nat$)) (=> (and (=> (= ?v0 zero$a) false) (forall ((?v1 Nat$)) (=> (= ?v0 (suc$a ?v1)) false) )) false) ))
(assert (forall ((?v0 Nat$) (?v1 Nat$)) (! (= (fun_app$g (plus$b (suc$a ?v0)) ?v1) (fun_app$g (plus$b ?v0) (suc$a ?v1))) :pattern ((fun_app$g (plus$b (suc$a ?v0)) ?v1)))))
(assert (forall ((?v0 Nat$) (?v1 Nat$)) (! (= (fun_app$g (plus$b (suc$a ?v0)) ?v1) (suc$a (fun_app$g (plus$b ?v0) ?v1))) :pattern ((fun_app$g (plus$b (suc$a ?v0)) ?v1)))))
(assert (forall ((?v0 Nat$) (?v1 Nat$)) (=> (= (suc$a ?v0) (suc$a ?v1)) (= ?v0 ?v1)) ))
(assert (forall ((?v0 Nat$)) (not (= ?v0 (suc$a ?v0))) ))
(assert (forall ((?v0 Nat$) (?v1 Nat$)) (= (= (fun_app$g (plus$b ?v0) ?v1) (suc$a zero$a)) (or (and (= ?v0 (suc$a zero$a)) (= ?v1 zero$a)) (and (= ?v0 zero$a) (= ?v1 (suc$a zero$a))))) ))
(assert (forall ((?v0 Nat$) (?v1 Nat$)) (= (= (suc$a zero$a) (fun_app$g (plus$b ?v0) ?v1)) (or (and (= ?v0 (suc$a zero$a)) (= ?v1 zero$a)) (and (= ?v0 zero$a) (= ?v1 (suc$a zero$a))))) ))
(assert (forall ((?v0 Nat$)) (=> (and (=> (= ?v0 zero$a) false) (forall ((?v1 Nat$)) (=> (= ?v0 (suc$a ?v1)) false) )) false) ))
(assert (forall ((?v0 Nat_bool_fun$)) (=> (and (not (fun_app$h ?v0 zero$a)) (exists ((?v1 Nat$)) (fun_app$h ?v0 ?v1) )) (exists ((?v1 Nat$)) (and (not (fun_app$h ?v0 ?v1)) (fun_app$h ?v0 (suc$a ?v1))) )) ))
(assert (forall ((?v0 Nat$)) (! (= (triangle$ (suc$a ?v0)) (fun_app$g (plus$b (triangle$ ?v0)) (suc$a ?v0))) :pattern ((suc$a ?v0)))))
(assert (forall ((?v0 A$) (?v1 A_list$)) (! (= (fun_app$b size$ (cons$ ?v0 ?v1)) (fun_app$g (plus$b (fun_app$b size$ ?v1)) (suc$a zero$a))) :pattern ((cons$ ?v0 ?v1)))))
(assert (forall ((?v0 A$) (?v1 A_list$) (?v2 A$) (?v3 A_list$)) (= (= (cons$ ?v0 ?v1) (cons$ ?v2 ?v3)) (and (= ?v0 ?v2) (= ?v1 ?v3))) ))
(assert (= (triangle$ zero$a) zero$a))
(assert (forall ((?v0 Nat$) (?v1 A$) (?v2 A_list$)) (! (= (take$ (suc$a ?v0) (cons$ ?v1 ?v2)) (cons$ ?v1 (take$ ?v0 ?v2))) :pattern ((take$ (suc$a ?v0) (cons$ ?v1 ?v2))))))
(assert (forall ((?v0 A_list$) (?v1 Nat$)) (= (= (fun_app$b size$ ?v0) (suc$a ?v1)) (exists ((?v2 A$) (?v3 A_list$)) (and (= ?v0 (cons$ ?v2 ?v3)) (= (fun_app$b size$ ?v3) ?v1)) )) ))
(assert (forall ((?v0 Nat$) (?v1 A_list$)) (= (= (suc$a ?v0) (fun_app$b size$ ?v1)) (exists ((?v2 A$) (?v3 A_list$)) (and (= ?v1 (cons$ ?v2 ?v3)) (= (fun_app$b size$ ?v3) ?v0)) )) ))
(assert (forall ((?v0 A$) (?v1 A_list$) (?v2 A$) (?v3 A_list$)) (! (= (splice$ (cons$ ?v0 ?v1) (cons$ ?v2 ?v3)) (cons$ ?v0 (cons$ ?v2 (splice$ ?v1 ?v3)))) :pattern ((splice$ (cons$ ?v0 ?v1) (cons$ ?v2 ?v3))))))
(assert (forall ((?v0 A$) (?v1 A_list$)) (not (= (cons$ ?v0 ?v1) ?v1)) ))
(assert (forall ((?v0 A$) (?v1 A_list$) (?v2 A_a_fun$) (?v3 A_list$)) (=> (= (cons$ ?v0 ?v1) (fun_app$c (fun_app$d map$ ?v2) ?v3)) (exists ((?v4 A$) (?v5 A_list$)) (and (= ?v3 (cons$ ?v4 ?v5)) (and (= ?v0 (fun_app$j ?v2 ?v4)) (= ?v1 (fun_app$c (fun_app$d map$ ?v2) ?v5)))) )) ))
(assert (forall ((?v0 A_a_fun$) (?v1 A_list$) (?v2 A$) (?v3 A_list$)) (=> (= (fun_app$c (fun_app$d map$ ?v0) ?v1) (cons$ ?v2 ?v3)) (exists ((?v4 A$) (?v5 A_list$)) (and (= ?v1 (cons$ ?v4 ?v5)) (and (= (fun_app$j ?v0 ?v4) ?v2) (= (fun_app$c (fun_app$d map$ ?v0) ?v5) ?v3))) )) ))
(assert (forall ((?v0 A$) (?v1 A_list$) (?v2 A_a_fun$) (?v3 A_list$)) (= (= (cons$ ?v0 ?v1) (fun_app$c (fun_app$d map$ ?v2) ?v3)) (exists ((?v4 A$) (?v5 A_list$)) (and (= ?v3 (cons$ ?v4 ?v5)) (and (= ?v0 (fun_app$j ?v2 ?v4)) (= ?v1 (fun_app$c (fun_app$d map$ ?v2) ?v5)))) )) ))
(assert (forall ((?v0 A_a_fun$) (?v1 A_list$) (?v2 A$) (?v3 A_list$)) (= (= (fun_app$c (fun_app$d map$ ?v0) ?v1) (cons$ ?v2 ?v3)) (exists ((?v4 A$) (?v5 A_list$)) (and (= ?v1 (cons$ ?v4 ?v5)) (and (= (fun_app$j ?v0 ?v4) ?v2) (= (fun_app$c (fun_app$d map$ ?v0) ?v5) ?v3))) )) ))
(assert (forall ((?v0 A_a_fun$) (?v1 A$) (?v2 A_list$)) (! (= (fun_app$c (fun_app$d map$ ?v0) (cons$ ?v1 ?v2)) (cons$ (fun_app$j ?v0 ?v1) (fun_app$c (fun_app$d map$ ?v0) ?v2))) :pattern ((fun_app$c (fun_app$d map$ ?v0) (cons$ ?v1 ?v2))))))
(assert (forall ((?v0 Nat$) (?v1 A$) (?v2 A_list$)) (! (= (fun_app$b (gen_length$ ?v0) (cons$ ?v1 ?v2)) (fun_app$b (gen_length$ (suc$a ?v0)) ?v2)) :pattern ((fun_app$b (gen_length$ ?v0) (cons$ ?v1 ?v2))))))
(assert (forall ((?v0 A$) (?v1 A_list$)) (! (= (fun_app$b size$ (cons$ ?v0 ?v1)) (suc$a (fun_app$b size$ ?v1))) :pattern ((cons$ ?v0 ?v1)))))
(assert (forall ((?v0 A_llist$) (?v1 A$)) (! (=> (lfinite$ ?v0) (= (list_of$ (lCons$ ?v1 ?v0)) (cons$ ?v1 (list_of$ ?v0)))) :pattern ((lCons$ ?v1 ?v0)))))
(assert (forall ((?v0 Nibble$) (?v1 Nibble$)) (! (= (size$d (char$ ?v0 ?v1)) zero$a) :pattern ((char$ ?v0 ?v1)))))
(assert (forall ((?v0 Nibble$) (?v1 Nibble$) (?v2 Nibble$) (?v3 Nibble$)) (= (= (char$ ?v0 ?v1) (char$ ?v2 ?v3)) (and (= ?v0 ?v2) (= ?v1 ?v3))) ))
(assert (forall ((?v0 A$) (?v1 A_llist$) (?v2 A$) (?v3 A_llist$)) (= (= (lCons$ ?v0 ?v1) (lCons$ ?v2 ?v3)) (and (= ?v0 ?v2) (= ?v1 ?v3))) ))
(assert (forall ((?v0 A$) (?v1 A_llist$)) (! (= (lfinite$ (lCons$ ?v0 ?v1)) (lfinite$ ?v1)) :pattern ((lCons$ ?v0 ?v1)))))
(assert (forall ((?v0 A$) (?v1 A_llist$)) (! (= (lfinite$ (lCons$ ?v0 ?v1)) (lfinite$ ?v1)) :pattern ((lCons$ ?v0 ?v1)))))
(assert (forall ((?v0 A$) (?v1 A_list$)) (! (= (llist_of$ (cons$ ?v0 ?v1)) (lCons$ ?v0 (llist_of$ ?v1))) :pattern ((cons$ ?v0 ?v1)))))
(assert (forall ((?v0 A_list$) (?v1 A$) (?v2 A_llist$)) (= (= (llist_of$ ?v0) (lCons$ ?v1 ?v2)) (exists ((?v3 A_list$)) (and (= ?v0 (cons$ ?v1 ?v3)) (= ?v2 (llist_of$ ?v3))) )) ))
(assert (forall ((?v0 A$) (?v1 A$) (?v2 A_llist$)) (! (= (fun_app$e (lmember$ ?v0) (lCons$ ?v1 ?v2)) (or (= ?v0 ?v1) (fun_app$e (lmember$ ?v0) ?v2))) :pattern ((fun_app$e (lmember$ ?v0) (lCons$ ?v1 ?v2))))))
(assert (forall ((?v0 Char$)) (=> (forall ((?v1 Nibble$) (?v2 Nibble$)) (=> (= ?v0 (char$ ?v1 ?v2)) false) ) false) ))
(assert (forall ((?v0 A$) (?v1 A_llist$)) (not (lnull$ (lCons$ ?v0 ?v1))) ))
(assert (forall ((?v0 A_llist$) (?v1 A$) (?v2 A_llist$)) (=> (= ?v0 (lCons$ ?v1 ?v2)) (not (lnull$ ?v0))) ))
(assert (forall ((?v0 A_llist$)) (= (not (lnull$ ?v0)) (exists ((?v1 A$) (?v2 A_llist$)) (= ?v0 (lCons$ ?v1 ?v2)) )) ))
(assert (forall ((?v0 A$) (?v1 A_llist$)) (not (= lNil$ (lCons$ ?v0 ?v1))) ))
(assert (forall ((?v0 A_llist$)) (=> (and (=> (= ?v0 lNil$) false) (forall ((?v1 A$) (?v2 A_llist$)) (=> (= ?v0 (lCons$ ?v1 ?v2)) false) )) false) ))
(assert (forall ((?v0 A_llist$)) (= (not (= ?v0 lNil$)) (exists ((?v1 A$) (?v2 A_llist$)) (= ?v0 (lCons$ ?v1 ?v2)) )) ))
(assert (forall ((?v0 A_llist$) (?v1 A$)) (=> (lfinite$ ?v0) (lfinite$ (lCons$ ?v1 ?v0))) ))
(assert (forall ((?v0 A_a_fun$) (?v1 A_llist$) (?v2 A$) (?v3 A_llist$)) (= (= (fun_app$ (lmap$ ?v0) ?v1) (lCons$ ?v2 ?v3)) (exists ((?v4 A$) (?v5 A_llist$)) (and (= ?v1 (lCons$ ?v4 ?v5)) (and (= ?v2 (fun_app$j ?v0 ?v4)) (= ?v3 (fun_app$ (lmap$ ?v0) ?v5)))) )) ))
(assert (forall ((?v0 A_a_fun$) (?v1 A$) (?v2 A_llist$)) (! (= (fun_app$ (lmap$ ?v0) (lCons$ ?v1 ?v2)) (lCons$ (fun_app$j ?v0 ?v1) (fun_app$ (lmap$ ?v0) ?v2))) :pattern ((fun_app$ (lmap$ ?v0) (lCons$ ?v1 ?v2))))))
(assert (forall ((?v0 A_llist$)) (=> (and (lfinite$ ?v0) (and (=> (= ?v0 lNil$) false) (forall ((?v1 A_llist$) (?v2 A$)) (=> (and (= ?v0 (lCons$ ?v2 ?v1)) (lfinite$ ?v1)) false) ))) false) ))
(assert (forall ((?v0 A_llist$)) (= (lfinite$ ?v0) (or (= ?v0 lNil$) (exists ((?v1 A_llist$) (?v2 A$)) (and (= ?v0 (lCons$ ?v2 ?v1)) (lfinite$ ?v1)) ))) ))
(assert (forall ((?v0 Nibble$) (?v1 Nibble$)) (! (= (size_char$ (char$ ?v0 ?v1)) zero$a) :pattern ((char$ ?v0 ?v1)))))
(assert (forall ((?v0 A_list$) (?v1 A$) (?v2 A_llist$)) (! (= (list_of_aux$ ?v0 (lCons$ ?v1 ?v2)) (list_of_aux$ (cons$ ?v1 ?v0) ?v2)) :pattern ((list_of_aux$ ?v0 (lCons$ ?v1 ?v2))))))
(assert (forall ((?v0 A$) (?v1 A_llist$)) (! (= (list_of$ (lCons$ ?v0 ?v1)) (ite (lfinite$ ?v1) (cons$ ?v0 (list_of$ ?v1)) undefined$)) :pattern ((lCons$ ?v0 ?v1)))))
(assert (forall ((?v0 A_bool_fun$) (?v1 A$) (?v2 A_llist$)) (! (= (pred_llist$ ?v0 (lCons$ ?v1 ?v2)) (and (fun_app$k ?v0 ?v1) (pred_llist$ ?v0 ?v2))) :pattern ((pred_llist$ ?v0 (lCons$ ?v1 ?v2))))))
(assert (forall ((?v0 Nat$) (?v1 A$) (?v2 A_llist$)) (! (= (fun_app$a (gen_llength$ ?v0) (lCons$ ?v1 ?v2)) (fun_app$a (gen_llength$ (fun_app$g (plus$b ?v0) one$)) ?v2)) :pattern ((fun_app$a (gen_llength$ ?v0) (lCons$ ?v1 ?v2))))))
(assert (= (nibble_of_nat$ one$) nibble1$))
(assert (forall ((?v0 A_bool_fun$)) (pred_llist$ ?v0 lNil$) ))
(assert (forall ((?v0 Natural$)) (= (= one$a ?v0) (= ?v0 one$a)) ))
(assert (forall ((?v0 Nat$)) (= (= one$ ?v0) (= ?v0 one$)) ))
(assert (forall ((?v0 Enat$)) (= (= one$b ?v0) (= ?v0 one$b)) ))
(assert (= one$ one$))
(assert (forall ((?v0 Nat$)) (! (= (suc$a ?v0) (fun_app$g (plus$b ?v0) one$)) :pattern ((suc$a ?v0)))))
(assert (forall ((?v0 Nat$)) (! (= (suc$a ?v0) (fun_app$g (plus$b one$) ?v0)) :pattern ((suc$a ?v0)))))
(assert (= one$ (suc$a zero$a)))
(assert (not (= zero$ one$b)))
(assert (not (= zero$a one$)))
(assert (not (= zero$b one$a)))
(assert (forall ((?v0 A$) (?v1 A_list$) (?v2 A$)) (! (= (count_list$ (cons$ ?v0 ?v1) ?v2) (ite (= ?v0 ?v2) (fun_app$g (plus$b (count_list$ ?v1 ?v2)) one$) (count_list$ ?v1 ?v2))) :pattern ((count_list$ (cons$ ?v0 ?v1) ?v2)))))
(assert (= one$b (enat$ one$)))
(assert (forall ((?v0 Nat$)) (= (= one$b (enat$ ?v0)) (= ?v0 one$)) ))
(assert (forall ((?v0 Nat$)) (= (= (enat$ ?v0) one$b) (= ?v0 one$)) ))
(assert (not (= zero$ one$b)))
(check-sat)
(exit)

